units        metal
dimension    3    
boundary   p p f

atom_style     atomic
atom_modify     map hash
neighbor        2.0 bin
neigh_modify    delay 5
newton          on

region       box block  -1 199  -1 199 -1 320 units box
create_box	3 box
mass 3   12.0


region        boundary_layer  block INF INF INF INF INF 18 units box
region        thermostat_layer block INF INF INF INF 18 74 units box
region        newtonian_layer  block INF INF INF INF 74 INF  units box
region        indenter  sphere 100 100  253.5 45  units box #100 100  253.5是压头圆心坐标，45是半径

lattice               diamond 3.567  
create_atoms	      3 region indenter  units box
read_data             NbZr.relax add append
group        boundary_layer   region  boundary_layer
group        thermostat_layer region  thermostat_layer
group        newtonian_layer  region  newtonian_layer
group        indenter        region indenter
group        worker           union  boundary_layer thermostat_layer newtonian_layer

write_data all.data
# ------------------------ FORCE FIELDS ------------------------------
pair_style  hybrid/overlay	adp lj/cut 7.0
pair_coeff	* * adp  NbZr.2021.adp Nb Zr NULL
pair_coeff  1 3 lj/cut 0.003 3.51
pair_coeff  2 3 lj/cut 0.05 3.04
pair_coeff  3 3 none 

#Defining compute

compute      peatom    all pe/atom     
compute      keatom    all ke/atom 
compute      crdatom   all coord/atom cutoff 2.51
compute      s         all stress/atom NULL virial
compute      volatom   all voronoi/atom
compute      force     worker group/group indenter 
compute      new1    thermostat_layer temp
compute      new2    newtonian_layer temp

#Defining variables 
variable    dx equal xcm(indenter,x)
variable    dy equal xcm(indenter,y)
variable    dz equal xcm(indenter,z)
variable    dzo equal ${dz}

variable    lz equal "10-v_dzo+xcm(indenter,z)"
variable    fx equal "c_force[1]*1.6e-3"   #  MicroNewton  1 ev/A=1.6*10^-9 J/m=1.6*10^-3 uN
variable    fy equal "c_force[2]*1.6e-3"   #  MicroNewton 
variable    fz equal "-c_force[3]*1.6e-3"   #  MicroNewton


velocity            all create 300 89994827 dist gaussian units box
velocity  boundary_layer set 0 0 0 units box
velocity  indenter set 0 0 0 units box



fix        1 all nve
fix        2 boundary_layer   setforce 0.0 0.0 0.0
fix        3 thermostat_layer temp/rescale 10 300 300 1 1 
fix_modify    3 temp new1
fix        4 indenter         setforce 0.0 0.0 0.0
fix        5 all  ave/time 100 10 1000 v_lz v_fx v_fy v_fz file force.profile

thermo 1000
thermo_style custom step temp pe ke etotal press
thermo_modify temp new2

timestep 0.001




dump   result all custom 2000 test*.xyz id type x y z c_peatom c_keatom c_crdatom c_volatom[1] c_s[1] c_s[2] c_s[3] c_s[4] c_s[5] c_s[6]

velocity  indenter set 0 0 -0.5 units box #这里的0.5是速度单位A/ps
fix    sscurve all print 1000 " ${lz} ${fz}" file indent.txt screen no
run    60000 #压头移动距离30A=10A（距离表面高度）+20A（压入深度）=步长0.001*速度0.5*步数60000=30A
velocity  indenter set 0 0 0.5 units box
run               60000

